
Gurobi 10.0.1 (win64) logging started Sat Sep  9 01:38:44 2023

Set parameter LogFile to value "results-heuristic-start//log/BA_12_makespan.log"
Gurobi Optimizer version 10.0.1 build v10.0.1rc0 (win64)

CPU model: AMD Ryzen 7 3700X 8-Core Processor, instruction set [SSE2|AVX|AVX2]
Thread count: 8 physical cores, 16 logical processors, using up to 16 threads

Optimize a model with 463 rows, 316 columns and 1886 nonzeros
Model fingerprint: 0xf86df7b1
Variable types: 45 continuous, 271 integer (270 binary)
Coefficient statistics:
  Matrix range     [1e+00, 1e+06]
  Objective range  [1e+00, 1e+00]
  Bounds range     [1e+00, 1e+00]
  RHS range        [1e+00, 3e+06]

Warning: Completing partial solution with 256 unfixed non-continuous variables out of 271
User MIP start produced solution with objective 931 (0.00s)
Loaded user MIP start with objective 931

Presolve removed 60 rows and 116 columns
Presolve time: 0.00s
Presolved: 403 rows, 200 columns, 1805 nonzeros
Variable types: 45 continuous, 155 integer (154 binary)
Found heuristic solution: objective 930.0000000

Root relaxation: objective 3.300000e+01, 74 iterations, 0.00 seconds (0.00 work units)

    Nodes    |    Current Node    |     Objective Bounds      |     Work
 Expl Unexpl |  Obj  Depth IntInf | Incumbent    BestBd   Gap | It/Node Time

     0     0   33.00000    0   11  930.00000   33.00000  96.5%     -    0s
H    0     0                     106.0000000   33.00000  68.9%     -    0s
H    0     0                     105.0000000   33.00000  68.6%     -    0s
H    0     0                      98.0000000   33.00000  66.3%     -    0s
     0     0   33.00000    0   14   98.00000   33.00000  66.3%     -    0s
H    0     0                      78.0000000   33.00000  57.7%     -    0s
     0     0   33.88715    0   23   78.00000   33.88715  56.6%     -    0s
     0     0   35.39696    0   13   78.00000   35.39696  54.6%     -    0s
H    0     0                      76.0000000   35.39696  53.4%     -    0s
     0     0   35.39696    0   20   76.00000   35.39696  53.4%     -    0s
     0     0   35.39696    0   22   76.00000   35.39696  53.4%     -    0s
     0     0   35.66022    0   27   76.00000   35.66022  53.1%     -    0s
H    0     0                      74.0000000   35.66022  51.8%     -    0s
     0     0   35.66022    0   27   74.00000   35.66022  51.8%     -    0s
     0     0   35.92808    0   26   74.00000   35.92808  51.4%     -    0s
H    0     0                      71.0000000   35.92808  49.4%     -    0s
     0     0   36.19153    0   36   71.00000   36.19153  49.0%     -    0s
     0     0   36.19153    0   36   71.00000   36.19153  49.0%     -    0s
     0     0   36.50852    0   38   71.00000   36.50852  48.6%     -    0s
H    0     0                      70.0000000   36.50852  47.8%     -    0s
     0     0   36.53949    0   40   70.00000   36.53949  47.8%     -    0s
     0     0   36.53949    0   38   70.00000   36.53949  47.8%     -    0s
     0     0   36.55177    0   36   70.00000   36.55177  47.8%     -    0s
     0     0   37.00000    0   16   70.00000   37.00000  47.1%     -    0s
H    0     0                      69.0000000   37.00000  46.4%     -    0s
     0     0   37.00000    0   27   69.00000   37.00000  46.4%     -    0s
     0     0   37.00000    0   27   69.00000   37.00000  46.4%     -    0s
H    0     0                      68.0000000   37.00000  45.6%     -    0s
H    0     0                      67.0000000   37.00000  44.8%     -    0s
     0     0   37.00000    0   24   67.00000   37.00000  44.8%     -    0s
     0     0   37.00000    0   10   67.00000   37.00000  44.8%     -    0s
     0     0   37.00000    0   19   67.00000   37.00000  44.8%     -    0s
     0     0   37.00000    0    4   67.00000   37.00000  44.8%     -    0s
     0     0   37.00000    0   13   67.00000   37.00000  44.8%     -    0s
     0     0   37.00000    0   14   67.00000   37.00000  44.8%     -    0s
     0     0   37.00000    0   24   67.00000   37.00000  44.8%     -    0s
     0     0   37.00000    0   15   67.00000   37.00000  44.8%     -    0s
     0     0   37.00000    0   16   67.00000   37.00000  44.8%     -    0s
     0     0   37.00000    0    8   67.00000   37.00000  44.8%     -    0s
     0     0   37.00000    0    8   67.00000   37.00000  44.8%     -    0s
H    0     0                      65.0000000   37.13536  42.9%     -    0s
H    0     0                      64.0000000   37.13536  42.0%     -    0s
     0     2   37.13536    0    8   64.00000   37.13536  42.0%     -    0s
 52320 17044   52.25971   52   19   64.00000   49.00000  23.4%  10.8    5s

Cutting planes:
  Learned: 125
  Gomory: 62
  Cover: 1
  Implied bound: 1
  MIR: 391
  Flow cover: 525
  Relax-and-lift: 4

Explored 56196 nodes (747788 simplex iterations) in 5.62 seconds (4.59 work units)
Thread count was 16 (of 16 available processors)

Solution count 10: 64 65 67 ... 78

Optimal solution found (tolerance 1.00e-04)
Best objective 6.400000000000e+01, best bound 6.400000000000e+01, gap 0.0000%
Warning: constraint name "precedence between 0,2 to 0,0 if x_[j,l,h,z,i]=1" has a space
Warning: constraint name "precedence between 0,2 to 0,0 if x_[j,l,h,z,i]=1" has a space
Warning: default constraint names used to write mps file
